results_rootrelaxation/bin012_050_009.srr.sol
solution status: optimal solution found
objective value:                                    0
_var26_                           0.00803998991850916 	(obj:0)
_var80_                             0.168100478870874 	(obj:0)
_var144_                            0.127866924304797 	(obj:0)
_var251_                           0.0358985129799206 	(obj:0)
_var254_                            0.149903385701083 	(obj:0)
_var320_                            0.112383432748046 	(obj:0)
_var341_                            0.209392590103335 	(obj:0)
_var571_                            0.301907082248171 	(obj:0)
_var712_                            0.455540620011761 	(obj:0)
_var719_                             0.46539527850122 	(obj:0)
_var732_                            0.380769553893975 	(obj:0)
_var737_                           0.0156599176678137 	(obj:0)
_var739_                          0.000218432327987378 	(obj:0)
_var741_                            0.057027640090731 	(obj:0)
_var744_                            0.234470301604637 	(obj:0)
_var746_                           0.0311770141981013 	(obj:0)
_var747_                          0.00835923716709849 	(obj:0)
_var748_                            0.369629505166764 	(obj:0)
_var756_                            0.335066789884904 	(obj:0)
_var757_                            0.225186927665291 	(obj:0)
_var765_                            0.147903889775687 	(obj:0)
_var769_                            0.182172561539111 	(obj:0)
_var771_                            0.109863059732839 	(obj:0)
_var772_                           0.0889691674367806 	(obj:0)
_var773_                            0.186373183231118 	(obj:0)
_var774_                           0.0521549189280017 	(obj:0)
_var775_                            0.428337393934301 	(obj:0)
_var777_                            0.236595816180795 	(obj:0)
_var778_                           0.0875325548181135 	(obj:0)
_var779_                            0.119885743089978 	(obj:0)
_var780_                            0.105259178358398 	(obj:0)
_var781_                           0.0984709737041086 	(obj:0)
_var782_                            0.153196673107618 	(obj:0)
_var784_                            0.227875325548181 	(obj:0)
_var787_                            0.161614718978408 	(obj:0)
_var788_                            0.139687473746115 	(obj:0)
_var791_                            0.163496597496432 	(obj:0)
_var792_                            0.243703268083675 	(obj:0)
_var794_                            0.530496513483995 	(obj:0)
_var796_                            0.286768041670167 	(obj:0)
_var797_                             0.20553641939007 	(obj:0)
_var798_                             0.30971183735193 	(obj:0)
_var799_                            0.278593631857515 	(obj:0)
_var800_                            0.121860035285221 	(obj:0)
_var801_                            0.144492984961776 	(obj:0)
_var804_                           0.0220532638830561 	(obj:0)
_var805_                            0.084785348231535 	(obj:0)
_var806_                             0.30092413677224 	(obj:0)
_var812_                             0.26721834831555 	(obj:0)
_var813_                            0.157918171889441 	(obj:0)
_var815_                             0.28376039653869 	(obj:0)
_var816_                            0.131756699991598 	(obj:0)
_var818_                            0.131303032848862 	(obj:0)
_var821_                            0.110652776610938 	(obj:0)
_var824_                            0.040443585650676 	(obj:0)
_var825_                          0.00637654372847296 	(obj:0)
_var827_                            0.163773838528104 	(obj:0)
_var828_                            0.250004200621696 	(obj:0)
_var829_                          0.00735108796101797 	(obj:0)
_var830_                            0.366126186675629 	(obj:0)
_var835_                           0.0404435856506732 	(obj:0)
_var836_                           0.0567672015458304 	(obj:0)
_var837_                           0.0409728639838722 	(obj:0)
_var839_                           0.0348231538267657 	(obj:0)
